c Result of efficient AIG-to-CNF conversion using package CNF
p cnf 617 2241
2 585 -476 0
2 585 -3 0
2 585 -511 0
-2 -585 0
-2 3 476 511 0
-3 4 411 -432 0
-3 4 411 435 0
3 -4 0
3 -411 0
3 432 -435 0
-4 5 343 347 380 0
4 -380 0
4 -347 0
4 -5 0
4 -343 0
-5 6 274 336 0
-5 6 274 -330 0
5 -6 0
5 -274 0
5 330 -336 0
6 612 -7 54 0
6 -7 54 156 0
-6 -54 0
-6 7 0
-6 -612 -156 0
7 612 -8 -24 0
7 -612 -24 -39 0
-7 24 0
-7 -612 39 0
-7 612 8 0
8 613 -9 0
8 -613 -17 0
-8 -613 17 0
-8 613 9 0
9 614 -10 0
9 -614 -14 0
-9 -614 14 0
-9 614 10 0
10 615 -13 0
10 -615 -11 0
10 615 -12 0
-10 -615 11 0
-10 615 12 13 0
-11 555 616 0
-11 556 -616 0
11 -556 -616 0
11 -555 616 0
12 -553 616 0
-12 553 0
-12 -616 0
13 -554 -616 0
-13 554 0
-13 616 0
14 -615 -16 0
14 615 -15 0
-14 615 15 0
-14 -615 16 0
-15 557 616 0
-15 558 -616 0
15 -558 -616 0
15 -557 616 0
-16 559 616 0
-16 560 -616 0
16 -560 -616 0
16 -559 616 0
17 614 -18 0
17 -614 -21 0
-17 -614 21 0
-17 614 18 0
18 -615 -20 0
18 615 -19 0
-18 615 19 0
-18 -615 20 0
-19 561 616 0
-19 562 -616 0
19 -562 -616 0
19 -561 616 0
-20 563 616 0
-20 564 -616 0
20 -564 -616 0
20 -563 616 0
21 -615 -23 0
21 615 -22 0
-21 615 22 0
-21 -615 23 0
-22 565 616 0
-22 566 -616 0
22 -566 -616 0
22 -565 616 0
-23 567 616 0
-23 568 -616 0
23 -568 -616 0
23 -567 616 0
24 -553 25 0
-24 553 0
-24 -25 0
-25 26 36 37 0
25 -26 0
25 -36 0
25 -37 0
-26 27 31 34 0
26 -27 0
26 -31 0
26 -34 0
-27 28 29 0
27 -28 0
27 -29 0
-28 594 595 596 597 0
28 -597 0
28 -596 0
28 -594 0
28 -595 0
-29 598 599 30 0
29 -30 0
29 -599 0
29 -598 0
-30 600 601 602 603 0
30 -603 0
30 -602 0
30 -600 0
30 -601 0
-31 604 605 606 32 0
31 -32 0
31 -606 0
31 -604 0
31 -605 0
-32 607 608 610 33 0
32 -33 0
32 -610 0
32 -607 0
32 -608 0
-33 609 611 0
33 -609 0
33 -611 0
-34 591 35 0
34 -591 0
34 -35 0
-35 592 593 0
35 -592 0
35 -593 0
-36 586 587 0
36 -586 0
36 -587 0
-37 590 38 0
37 -590 0
37 -38 0
-38 588 589 0
38 -588 0
38 -589 0
39 613 -40 0
39 -613 -47 0
-39 -613 47 0
-39 613 40 0
40 614 -41 0
40 -614 -44 0
-40 -614 44 0
-40 614 41 0
41 -615 -43 0
41 615 -42 0
-41 615 42 0
-41 -615 43 0
-42 569 616 0
-42 570 -616 0
42 -570 -616 0
42 -569 616 0
-43 571 616 0
-43 572 -616 0
43 -572 -616 0
43 -571 616 0
44 -615 -46 0
44 615 -45 0
-44 615 45 0
-44 -615 46 0
-45 573 616 0
-45 574 -616 0
45 -574 -616 0
45 -573 616 0
-46 575 616 0
-46 576 -616 0
46 -576 -616 0
46 -575 616 0
47 614 -48 0
47 -614 -51 0
-47 -614 51 0
-47 614 48 0
48 -615 -50 0
48 615 -49 0
-48 615 49 0
-48 -615 50 0
-49 577 616 0
-49 578 -616 0
49 -578 -616 0
49 -577 616 0
-50 579 616 0
-50 580 -616 0
50 -580 -616 0
50 -579 616 0
51 -615 -53 0
51 615 -52 0
-51 615 52 0
-51 -615 53 0
-52 581 616 0
-52 582 -616 0
52 -582 -616 0
52 -581 616 0
-53 583 616 0
-53 584 -616 0
53 -584 -616 0
53 -583 616 0
-54 614 55 108 0
-54 55 84 108 0
54 -55 0
54 -108 0
54 -614 -84 0
-55 56 67 72 0
-55 615 56 67 0
55 -67 0
55 -56 0
55 -615 -72 0
56 -616 -57 0
-56 616 0
-56 57 0
57 -554 586 -58 61 0
-57 -61 0
-57 554 0
-57 58 0
-57 -586 0
58 613 -59 0
-58 -613 0
-58 59 0
59 614 -60 0
-59 -614 0
-59 60 0
60 -553 615 -616 0
60 -554 615 616 0
-60 -615 0
-60 553 -616 0
-60 554 616 0
-61 28 62 63 66 0
61 -66 0
61 -28 0
61 -63 0
61 -62 0
-62 590 34 0
62 -590 0
62 -34 0
-63 29 64 0
63 -29 0
63 -64 0
-64 32 65 0
64 -32 0
64 -65 0
-65 604 605 606 612 0
65 -612 0
65 -606 0
65 -604 0
65 -605 0
-66 585 587 38 0
66 -38 0
66 -587 0
66 -585 0
67 586 66 68 -69 0
-67 -586 0
-67 69 0
-67 -68 0
-67 -66 0
-68 27 64 0
68 -27 0
68 -64 0
69 62 -70 0
-69 -62 0
-69 70 0
70 613 -71 0
-70 -613 0
-70 71 0
71 -553 614 615 616 0
-71 -616 0
-71 -615 0
-71 553 0
-71 -614 0
72 616 -73 0
72 -616 -78 0
-72 -616 78 0
-72 616 73 0
73 -555 586 61 -74 0
-73 74 0
-73 555 0
-73 -61 0
-73 -586 0
74 613 -75 0
-74 -613 0
-74 75 0
75 614 -76 0
-75 -614 0
-75 76 0
76 615 -77 0
76 -553 -615 616 0
-76 553 -615 0
-76 615 77 0
-76 -615 -616 0
-77 555 616 0
-77 554 -616 0
77 -555 616 0
77 -554 -616 0
78 -556 586 61 -79 0
-78 79 0
-78 556 0
-78 -61 0
-78 -586 0
79 613 -80 0
-79 -613 0
-79 80 0
80 614 -81 0
-80 -614 0
-80 81 0
81 615 -83 0
81 -615 -82 0
-81 -615 82 0
-81 615 83 0
-82 554 616 0
-82 553 -616 0
82 -554 616 0
82 -553 -616 0
-83 556 616 0
-83 555 -616 0
83 -556 616 0
83 -555 -616 0
84 615 -85 0
84 -615 -97 0
-84 -615 97 0
-84 615 85 0
85 616 -86 0
85 -616 -92 0
-85 -616 92 0
-85 616 86 0
86 -557 87 -88 0
-86 557 0
-86 -87 0
-86 88 0
-87 586 61 0
87 -586 0
87 -61 0
88 613 -89 0
-88 -613 0
-88 89 0
89 614 -90 0
89 -614 615 -12 0
-89 -614 -615 0
-89 614 90 0
-89 -614 12 0
90 615 -91 0
90 -615 -77 0
-90 -615 77 0
-90 615 91 0
-91 557 616 0
-91 556 -616 0
91 -557 616 0
91 -556 -616 0
92 -558 87 -93 0
-92 558 0
-92 -87 0
-92 93 0
93 613 -94 0
-93 -613 0
-93 94 0
94 -614 -60 0
94 614 -95 0
-94 614 95 0
-94 -614 60 0
95 615 -96 0
95 -615 -83 0
-95 -615 83 0
-95 615 96 0
-96 558 616 0
-96 557 -616 0
96 -558 616 0
96 -557 -616 0
97 616 -98 0
97 -616 -103 0
-97 -616 103 0
-97 616 98 0
98 -559 87 -99 0
-98 559 0
-98 -87 0
-98 99 0
99 613 -100 0
-99 -613 0
-99 100 0
100 -614 -76 0
100 614 -101 0
-100 614 101 0
-100 -614 76 0
101 615 -102 0
101 -615 -91 0
-101 -615 91 0
-101 615 102 0
-102 559 616 0
-102 558 -616 0
102 -559 616 0
102 -558 -616 0
103 -560 87 -104 0
-103 560 0
-103 -87 0
-103 104 0
104 613 -105 0
-104 -613 0
-104 105 0
105 -614 -81 0
105 614 -106 0
-105 614 106 0
-105 -614 81 0
106 615 -107 0
106 -615 -96 0
-106 -615 96 0
-106 615 107 0
-107 560 616 0
-107 559 -616 0
107 -560 616 0
107 -559 -616 0
108 -613 -109 0
-108 613 0
-108 109 0
109 614 -110 0
109 -614 -133 0
-109 -614 133 0
-109 614 110 0
110 615 -111 0
110 -615 -122 0
-110 -615 122 0
-110 615 111 0
111 616 -112 0
111 -616 -117 0
-111 -616 117 0
-111 616 112 0
112 -561 87 -113 0
-112 561 0
-112 -87 0
-112 113 0
113 -613 -71 0
113 613 -114 0
-113 613 114 0
-113 -613 71 0
114 -614 -90 0
114 614 -115 0
-114 614 115 0
-114 -614 90 0
115 615 -116 0
115 -615 -102 0
-115 -615 102 0
-115 615 116 0
-116 561 616 0
-116 560 -616 0
116 -561 616 0
116 -560 -616 0
117 -562 87 -118 0
-117 562 0
-117 -87 0
-117 118 0
118 -613 -59 0
118 613 -119 0
-118 613 119 0
-118 -613 59 0
119 -614 -95 0
119 614 -120 0
-119 614 120 0
-119 -614 95 0
120 615 -121 0
120 -615 -107 0
-120 -615 107 0
-120 615 121 0
-121 562 616 0
-121 561 -616 0
121 -562 616 0
121 -561 -616 0
122 616 -123 0
122 -616 -128 0
-122 -616 128 0
-122 616 123 0
123 -563 87 -124 0
-123 563 0
-123 -87 0
-123 124 0
124 -613 -75 0
124 613 -125 0
-124 613 125 0
-124 -613 75 0
125 -614 -101 0
125 614 -126 0
-125 614 126 0
-125 -614 101 0
126 615 -127 0
126 -615 -116 0
-126 -615 116 0
-126 615 127 0
-127 563 616 0
-127 562 -616 0
127 -563 616 0
127 -562 -616 0
128 -564 87 -129 0
-128 564 0
-128 -87 0
-128 129 0
129 -613 -80 0
129 613 -130 0
-129 613 130 0
-129 -613 80 0
130 -614 -106 0
130 614 -131 0
-130 614 131 0
-130 -614 106 0
131 615 -132 0
131 -615 -121 0
-131 -615 121 0
-131 615 132 0
-132 564 616 0
-132 563 -616 0
132 -564 616 0
132 -563 -616 0
133 615 -134 0
133 -615 -145 0
-133 -615 145 0
-133 615 134 0
134 616 -135 0
134 -616 -140 0
-134 -616 140 0
-134 616 135 0
135 -565 87 -136 0
-135 565 0
-135 -87 0
-135 136 0
136 -613 -89 0
136 613 -137 0
-136 613 137 0
-136 -613 89 0
137 -614 -115 0
137 614 -138 0
-137 614 138 0
-137 -614 115 0
138 615 -139 0
138 -615 -127 0
-138 -615 127 0
-138 615 139 0
-139 565 616 0
-139 564 -616 0
139 -565 616 0
139 -564 -616 0
140 -566 87 -141 0
-140 566 0
-140 -87 0
-140 141 0
141 -613 -94 0
141 613 -142 0
-141 613 142 0
-141 -613 94 0
142 -614 -120 0
142 614 -143 0
-142 614 143 0
-142 -614 120 0
143 615 -144 0
143 -615 -132 0
-143 -615 132 0
-143 615 144 0
-144 566 616 0
-144 565 -616 0
144 -566 616 0
144 -565 -616 0
145 616 -146 0
145 -616 -151 0
-145 -616 151 0
-145 616 146 0
146 -567 87 -147 0
-146 567 0
-146 -87 0
-146 147 0
147 -613 -100 0
147 613 -148 0
-147 613 148 0
-147 -613 100 0
148 -614 -126 0
148 614 -149 0
-148 614 149 0
-148 -614 126 0
149 615 -150 0
149 -615 -139 0
-149 -615 139 0
-149 615 150 0
-150 567 616 0
-150 566 -616 0
150 -567 616 0
150 -566 -616 0
151 -568 87 -152 0
-151 568 0
-151 -87 0
-151 152 0
152 -613 -105 0
152 613 -153 0
-152 613 153 0
-152 -613 105 0
153 -614 -131 0
153 614 -154 0
-153 614 154 0
-153 -614 131 0
154 615 -155 0
154 -615 -144 0
-154 -615 144 0
-154 615 155 0
-155 568 616 0
-155 567 -616 0
155 -568 616 0
155 -567 -616 0
156 613 -157 0
156 -613 -217 0
-156 -613 217 0
-156 613 157 0
157 614 -158 0
157 -614 -189 0
-157 -614 189 0
-157 614 158 0
158 615 -159 0
158 -615 -176 0
-158 -615 176 0
-158 615 159 0
159 616 -160 0
159 -616 -170 0
-159 -616 170 0
-159 616 160 0
160 -569 36 -161 165 0
-160 -165 0
-160 569 0
-160 -36 0
-160 161 0
-161 612 -613 114 0
-161 612 613 162 0
161 -612 0
161 -613 -114 0
161 613 -162 0
162 -614 -138 0
162 614 -163 0
-162 614 163 0
-162 -614 138 0
163 615 -164 0
163 -615 -150 0
-163 -615 150 0
-163 615 164 0
-164 569 616 0
-164 568 -616 0
164 -569 616 0
164 -568 -616 0
-165 -70 166 0
-165 612 166 0
165 -166 0
165 -612 70 0
-166 167 168 0
166 -167 0
166 -168 0
-167 590 591 38 0
167 -38 0
167 -591 0
167 -590 0
-168 585 30 31 169 0
168 -585 0
168 -169 0
168 -31 0
168 -30 0
-169 598 599 28 35 0
169 -598 0
169 -35 0
169 -28 0
169 -599 0
170 -570 36 -171 175 0
-170 -175 0
-170 570 0
-170 -36 0
-170 171 0
-171 612 -613 119 0
-171 612 613 172 0
171 -612 0
171 -613 -119 0
171 613 -172 0
172 -614 -143 0
172 614 -173 0
-172 614 173 0
-172 -614 143 0
173 615 -174 0
173 -615 -155 0
-173 -615 155 0
-173 615 174 0
-174 570 616 0
-174 569 -616 0
174 -570 616 0
174 -569 -616 0
-175 -58 166 0
-175 612 166 0
175 -166 0
175 -612 58 0
176 616 -177 0
176 -616 -183 0
-176 -616 183 0
-176 616 177 0
177 -571 36 -178 182 0
-177 -182 0
-177 571 0
-177 -36 0
-177 178 0
-178 612 -613 125 0
-178 612 613 179 0
178 -612 0
178 -613 -125 0
178 613 -179 0
179 -614 -149 0
179 614 -180 0
-179 614 180 0
-179 -614 149 0
180 615 -181 0
180 -615 -164 0
-180 -615 164 0
-180 615 181 0
-181 571 616 0
-181 570 -616 0
181 -571 616 0
181 -570 -616 0
-182 -74 166 0
-182 612 166 0
182 -166 0
182 -612 74 0
183 -572 36 -184 188 0
-183 -188 0
-183 572 0
-183 -36 0
-183 184 0
-184 612 -613 130 0
-184 612 613 185 0
184 -612 0
184 -613 -130 0
184 613 -185 0
185 -614 -154 0
185 614 -186 0
-185 614 186 0
-185 -614 154 0
186 615 -187 0
186 -615 -174 0
-186 -615 174 0
-186 615 187 0
-187 572 616 0
-187 571 -616 0
187 -572 616 0
187 -571 -616 0
-188 -79 166 0
-188 612 166 0
188 -166 0
188 -612 79 0
189 615 -190 0
189 -615 -204 0
-189 -615 204 0
-189 615 190 0
190 616 -191 0
190 -616 -198 0
-190 -616 198 0
-190 616 191 0
191 -612 -88 -196 0
191 612 -192 -196 0
-191 196 0
-191 -612 88 0
-191 612 192 0
192 -613 -137 0
192 613 -193 0
-192 613 193 0
-192 -613 137 0
193 -614 -163 0
193 614 -194 0
-193 614 194 0
-193 -614 163 0
194 615 -195 0
194 -615 -181 0
-194 -615 181 0
-194 615 195 0
-195 573 616 0
-195 572 -616 0
195 -573 616 0
195 -572 -616 0
196 -573 168 197 0
-196 573 0
-196 -168 0
-196 -197 0
-197 36 167 0
197 -36 0
197 -167 0
198 -574 36 -199 203 0
-198 -203 0
-198 574 0
-198 -36 0
-198 199 0
-199 612 -613 142 0
-199 612 613 200 0
199 -612 0
199 -613 -142 0
199 613 -200 0
200 -614 -173 0
200 614 -201 0
-200 614 201 0
-200 -614 173 0
201 615 -202 0
201 -615 -187 0
-201 -615 187 0
-201 615 202 0
-202 574 616 0
-202 573 -616 0
202 -574 616 0
202 -573 -616 0
-203 -93 166 0
-203 612 166 0
203 -166 0
203 -612 93 0
204 616 -205 0
204 -616 -211 0
-204 -616 211 0
-204 616 205 0
205 -575 36 -206 210 0
-205 -210 0
-205 575 0
-205 -36 0
-205 206 0
-206 612 -613 148 0
-206 612 613 207 0
206 -612 0
206 -613 -148 0
206 613 -207 0
207 -614 -180 0
207 614 -208 0
-207 614 208 0
-207 -614 180 0
208 615 -209 0
208 -615 -195 0
-208 -615 195 0
-208 615 209 0
-209 575 616 0
-209 574 -616 0
209 -575 616 0
209 -574 -616 0
-210 -99 166 0
-210 612 166 0
210 -166 0
210 -612 99 0
211 -576 197 -212 216 0
-211 -216 0
-211 576 0
-211 -197 0
-211 212 0
-212 612 -613 153 0
-212 612 613 213 0
212 -612 0
212 -613 -153 0
212 613 -213 0
213 -614 -186 0
213 614 -214 0
-213 614 214 0
-213 -614 186 0
214 615 -215 0
214 -615 -202 0
-214 -615 202 0
-214 615 215 0
-215 576 616 0
-215 575 -616 0
215 -576 616 0
215 -575 -616 0
-216 -104 168 0
-216 612 168 0
216 -168 0
216 -612 104 0
217 614 -218 0
217 -614 -245 0
-217 -614 245 0
-217 614 218 0
218 615 -219 0
218 -615 -232 0
-218 -615 232 0
-218 615 219 0
219 616 -220 0
219 -616 -226 0
-219 -616 226 0
-219 616 220 0
220 -577 197 -221 225 0
-220 -225 0
-220 577 0
-220 -197 0
-220 221 0
-221 612 -613 162 0
-221 612 613 222 0
221 -612 0
221 -613 -162 0
221 613 -222 0
222 -614 -194 0
222 614 -223 0
-222 614 223 0
-222 -614 194 0
223 615 -224 0
223 -615 -209 0
-223 -615 209 0
-223 615 224 0
-224 577 616 0
-224 576 -616 0
224 -577 616 0
224 -576 -616 0
-225 -113 168 0
-225 612 168 0
225 -168 0
225 -612 113 0
226 -578 197 -227 231 0
-226 -231 0
-226 578 0
-226 -197 0
-226 227 0
-227 612 -613 172 0
-227 612 613 228 0
227 -612 0
227 -613 -172 0
227 613 -228 0
228 -614 -201 0
228 614 -229 0
-228 614 229 0
-228 -614 201 0
229 615 -230 0
229 -615 -215 0
-229 -615 215 0
-229 615 230 0
-230 578 616 0
-230 577 -616 0
230 -578 616 0
230 -577 -616 0
-231 -118 168 0
-231 612 168 0
231 -168 0
231 -612 118 0
232 616 -233 0
232 -616 -239 0
-232 -616 239 0
-232 616 233 0
233 -579 197 -234 238 0
-233 -238 0
-233 579 0
-233 -197 0
-233 234 0
-234 612 -613 179 0
-234 612 613 235 0
234 -612 0
234 -613 -179 0
234 613 -235 0
235 -614 -208 0
235 614 -236 0
-235 614 236 0
-235 -614 208 0
236 615 -237 0
236 -615 -224 0
-236 -615 224 0
-236 615 237 0
-237 579 616 0
-237 578 -616 0
237 -579 616 0
237 -578 -616 0
-238 -124 168 0
-238 612 168 0
238 -168 0
238 -612 124 0
239 -580 197 -240 244 0
-239 -244 0
-239 580 0
-239 -197 0
-239 240 0
-240 612 -613 185 0
-240 612 613 241 0
240 -612 0
240 -613 -185 0
240 613 -241 0
241 -614 -214 0
241 614 -242 0
-241 614 242 0
-241 -614 214 0
242 615 -243 0
242 -615 -230 0
-242 -615 230 0
-242 615 243 0
-243 580 616 0
-243 579 -616 0
243 -580 616 0
243 -579 -616 0
-244 -129 168 0
-244 612 168 0
244 -168 0
244 -612 129 0
245 615 -246 0
245 -615 -259 0
-245 -615 259 0
-245 615 246 0
246 616 -247 0
246 -616 -253 0
-246 -616 253 0
-246 616 247 0
247 -581 197 -248 252 0
-247 -252 0
-247 581 0
-247 -197 0
-247 248 0
-248 612 -613 193 0
-248 612 613 249 0
248 -612 0
248 -613 -193 0
248 613 -249 0
249 -614 -223 0
249 614 -250 0
-249 614 250 0
-249 -614 223 0
250 615 -251 0
250 -615 -237 0
-250 -615 237 0
-250 615 251 0
-251 581 616 0
-251 580 -616 0
251 -581 616 0
251 -580 -616 0
-252 -136 168 0
-252 612 168 0
252 -168 0
252 -612 136 0
253 -582 197 -254 258 0
-253 -258 0
-253 582 0
-253 -197 0
-253 254 0
-254 612 -613 200 0
-254 612 613 255 0
254 -612 0
254 -613 -200 0
254 613 -255 0
255 -614 -229 0
255 614 -256 0
-255 614 256 0
-255 -614 229 0
256 615 -257 0
256 -615 -243 0
-256 -615 243 0
-256 615 257 0
-257 582 616 0
-257 581 -616 0
257 -582 616 0
257 -581 -616 0
-258 -141 168 0
-258 612 168 0
258 -168 0
258 -612 141 0
259 616 -260 0
259 -616 -267 0
-259 -616 267 0
-259 616 260 0
260 -583 168 197 -261 0
-260 -197 0
-260 261 0
-260 583 0
-260 -168 0
-261 -612 147 0
-261 612 262 0
261 -612 -147 0
261 612 -262 0
-262 -613 207 0
-262 613 263 0
262 -613 -207 0
262 613 -263 0
-263 -614 236 0
-263 614 264 0
263 -614 -236 0
263 614 -264 0
-264 -615 251 0
-264 615 265 266 0
264 615 -265 0
264 -615 -251 0
264 615 -266 0
265 -582 -616 0
-265 582 0
-265 616 0
266 -583 616 0
-266 583 0
-266 -616 0
267 -584 168 197 -268 0
-267 -197 0
-267 268 0
-267 584 0
-267 -168 0
-268 -612 152 0
-268 612 269 0
268 -612 -152 0
268 612 -269 0
-269 -613 213 0
-269 613 270 0
269 -613 -213 0
269 613 -270 0
-270 -614 242 0
-270 614 271 0
270 -614 -242 0
270 614 -271 0
-271 -615 257 0
-271 615 272 273 0
271 615 -273 0
271 -615 -257 0
271 615 -272 0
272 -583 -616 0
-272 583 0
-272 616 0
273 -584 616 0
-273 584 0
-273 -616 0
274 612 275 -302 0
274 275 290 -302 0
-274 302 0
-274 -275 0
-274 -612 -290 0
-275 -614 276 282 0
-275 614 279 282 0
275 -282 0
275 614 -279 0
275 -614 -276 0
276 615 -277 0
276 -615 -278 0
-276 -615 278 0
-276 615 277 0
277 616 -117 0
277 -616 -123 0
-277 -616 123 0
-277 616 117 0
278 616 -128 0
278 -616 -135 0
-278 -616 135 0
-278 616 128 0
279 615 -280 0
279 -615 -281 0
-279 -615 281 0
-279 615 280 0
280 616 -92 0
280 -616 -98 0
-280 -616 98 0
-280 616 92 0
281 616 -103 0
281 -616 -112 0
-281 -616 112 0
-281 616 103 0
282 -613 -283 0
-282 613 0
-282 283 0
283 614 -284 0
283 -614 -287 0
-283 -614 287 0
-283 614 284 0
284 615 -285 0
284 -615 -286 0
-284 -615 286 0
-284 615 285 0
285 616 -140 0
285 -616 -146 0
-285 -616 146 0
-285 616 140 0
286 616 -151 0
286 -616 -160 0
-286 -616 160 0
-286 616 151 0
287 615 -288 0
287 -615 -289 0
-287 -615 289 0
-287 615 288 0
288 616 -170 0
288 -616 -177 0
-288 -616 177 0
-288 616 170 0
289 616 -183 0
289 -616 -191 0
-289 -616 191 0
-289 616 183 0
290 613 -291 0
290 -613 -298 0
-290 -613 298 0
-290 613 291 0
291 614 -292 0
291 -614 -295 0
-291 -614 295 0
-291 614 292 0
292 615 -293 0
292 -615 -294 0
-292 -615 294 0
-292 615 293 0
293 616 -198 0
293 -616 -205 0
-293 -616 205 0
-293 616 198 0
294 616 -211 0
294 -616 -220 0
-294 -616 220 0
-294 616 211 0
295 615 -296 0
295 -615 -297 0
-295 -615 297 0
-295 615 296 0
296 616 -226 0
296 -616 -233 0
-296 -616 233 0
-296 616 226 0
297 616 -239 0
297 -616 -247 0
-297 -616 247 0
-297 616 239 0
298 614 -299 0
-298 -614 0
-298 299 0
299 615 -300 0
299 -615 -301 0
-299 -615 301 0
-299 615 300 0
300 616 -253 0
300 -616 -260 0
-300 -616 260 0
-300 616 253 0
301 616 -267 0
-301 -616 0
-301 267 0
302 612 -303 -318 0
302 -612 -318 -319 0
-302 318 0
-302 -612 319 0
-302 612 303 0
303 613 -304 0
303 -613 -311 0
-303 -613 311 0
-303 613 304 0
304 614 -305 0
304 -614 -308 0
-304 -614 308 0
-304 614 305 0
305 -615 -307 0
305 615 -306 0
-305 615 306 0
-305 -615 307 0
-306 558 616 0
-306 559 -616 0
306 -559 -616 0
306 -558 616 0
-307 560 616 0
-307 561 -616 0
307 -561 -616 0
307 -560 616 0
308 -615 -310 0
308 615 -309 0
-308 615 309 0
-308 -615 310 0
-309 562 616 0
-309 563 -616 0
309 -563 -616 0
309 -562 616 0
-310 564 616 0
-310 565 -616 0
310 -565 -616 0
310 -564 616 0
311 614 -312 0
311 -614 -315 0
-311 -614 315 0
-311 614 312 0
312 -615 -314 0
312 615 -313 0
-312 615 313 0
-312 -615 314 0
-313 566 616 0
-313 567 -616 0
313 -567 -616 0
313 -566 616 0
-314 568 616 0
-314 569 -616 0
314 -569 -616 0
314 -568 616 0
315 -615 -317 0
315 615 -316 0
-315 615 316 0
-315 -615 317 0
-316 570 616 0
-316 571 -616 0
316 -571 -616 0
316 -570 616 0
-317 572 616 0
-317 573 -616 0
317 -573 -616 0
317 -572 616 0
318 -558 25 0
-318 558 0
-318 -25 0
319 613 -320 0
319 -613 -327 0
-319 -613 327 0
-319 613 320 0
320 614 -321 0
320 -614 -324 0
-320 -614 324 0
-320 614 321 0
321 -615 -323 0
321 615 -322 0
-321 615 322 0
-321 -615 323 0
-322 574 616 0
-322 575 -616 0
322 -575 -616 0
322 -574 616 0
-323 576 616 0
-323 577 -616 0
323 -577 -616 0
323 -576 616 0
324 -615 -326 0
324 615 -325 0
-324 615 325 0
-324 -615 326 0
-325 578 616 0
-325 579 -616 0
325 -579 -616 0
325 -578 616 0
-326 580 616 0
-326 581 -616 0
326 -581 -616 0
326 -580 616 0
327 614 -328 0
-327 -614 0
-327 328 0
328 615 -329 0
328 -584 -615 616 0
-328 584 -615 0
-328 615 329 0
-328 -615 -616 0
-329 582 616 0
-329 583 -616 0
329 -583 -616 0
329 -582 616 0
-330 -613 331 333 0
-330 613 332 333 0
330 -333 0
330 613 -332 0
330 -613 -331 0
331 614 -189 0
331 -614 -218 0
-331 -614 218 0
-331 614 189 0
332 614 -133 0
332 -614 -158 0
-332 -614 158 0
-332 614 133 0
333 -612 -334 0
-333 612 0
-333 334 0
334 613 -335 0
-334 -613 0
-334 335 0
335 614 -245 0
-335 -614 0
-335 245 0
336 612 -337 -342 0
336 -612 -340 -342 0
-336 342 0
-336 -612 340 0
-336 612 337 0
337 613 -338 0
337 -613 -339 0
-337 -613 339 0
-337 613 338 0
338 614 -21 0
338 -614 -41 0
-338 -614 41 0
-338 614 21 0
339 614 -44 0
339 -614 -48 0
-339 -614 48 0
-339 614 44 0
340 613 -341 0
-340 -613 0
-340 341 0
341 614 -51 0
-341 -614 0
-341 51 0
342 -565 25 0
-342 565 0
-342 -25 0
343 35 68 344 -346 0
343 35 68 -344 346 0
-343 -68 0
-343 344 346 0
-343 -35 0
-343 -344 -346 0
344 -573 197 -345 0
-344 573 0
-344 -197 0
-344 345 0
345 613 -339 0
345 -613 -341 0
-345 -613 341 0
-345 613 339 0
346 613 -331 0
346 -613 -335 0
-346 -613 335 0
-346 613 331 0
347 612 -348 365 0
347 -348 365 373 0
-347 -365 0
-347 348 0
-347 -612 -373 0
348 612 -349 -357 0
348 -612 -357 -359 0
-348 357 0
-348 -612 359 0
-348 612 349 0
349 613 -350 0
349 -613 -354 0
-349 -613 354 0
-349 613 350 0
350 614 -351 0
350 -614 -353 0
-350 -614 353 0
-350 614 351 0
351 615 -352 0
351 -615 -306 0
-351 -615 306 0
-351 615 352 0
-352 556 616 0
-352 557 -616 0
352 -557 -616 0
352 -556 616 0
353 -615 -309 0
353 615 -307 0
-353 615 307 0
-353 -615 309 0
354 614 -355 0
354 -614 -356 0
-354 -614 356 0
-354 614 355 0
355 -615 -313 0
355 615 -310 0
-355 615 310 0
-355 -615 313 0
356 -615 -316 0
356 615 -314 0
-356 615 314 0
-356 -615 316 0
357 -556 586 358 0
-357 556 0
-357 -586 0
-357 -358 0
-358 587 26 37 0
358 -37 0
358 -26 0
358 -587 0
359 613 -360 0
359 -613 -363 0
-359 -613 363 0
-359 613 360 0
360 614 -361 0
360 -614 -362 0
-360 -614 362 0
-360 614 361 0
361 -615 -322 0
361 615 -317 0
-361 615 317 0
-361 -615 322 0
362 -615 -325 0
362 615 -323 0
-362 615 323 0
-362 -615 325 0
363 614 -364 0
363 -614 615 -273 0
-363 -614 -615 0
-363 614 364 0
-363 -614 273 0
364 -615 -329 0
364 615 -326 0
-364 615 326 0
-364 -615 329 0
-365 -614 366 369 0
-365 614 367 369 0
365 -369 0
365 614 -367 0
365 -614 -366 0
366 -615 -277 0
366 615 -281 0
-366 615 281 0
-366 -615 277 0
-367 615 368 0
-367 -615 280 0
367 -615 -280 0
367 615 -368 0
368 616 -78 0
368 -616 -86 0
-368 -616 86 0
-368 616 78 0
369 -613 -370 0
-369 613 0
-369 370 0
370 614 -371 0
370 -614 -372 0
-370 -614 372 0
-370 614 371 0
371 615 -278 0
371 -615 -285 0
-371 -615 285 0
-371 615 278 0
372 615 -286 0
372 -615 -288 0
-372 -615 288 0
-372 615 286 0
373 613 -374 0
373 -613 -377 0
-373 -613 377 0
-373 613 374 0
374 614 -375 0
374 -614 -376 0
-374 -614 376 0
-374 614 375 0
375 615 -289 0
375 -615 -293 0
-375 -615 293 0
-375 615 289 0
376 615 -294 0
376 -615 -296 0
-376 -615 296 0
-376 615 294 0
377 614 -378 0
377 -614 -379 0
-377 -614 379 0
-377 614 378 0
378 615 -297 0
378 -615 -300 0
-378 -615 300 0
-378 615 297 0
379 615 -301 0
-379 -615 0
-379 301 0
380 612 -381 397 0
380 -381 397 404 0
-380 -397 0
-380 381 0
-380 -612 -404 0
381 612 -382 -389 0
381 -612 -389 -390 0
-381 389 0
-381 -612 390 0
-381 612 382 0
382 613 -383 0
382 -613 -386 0
-382 -613 386 0
-382 613 383 0
383 614 -384 0
383 -614 -385 0
-383 -614 385 0
-383 614 384 0
384 -615 -15 0
384 615 -11 0
-384 615 11 0
-384 -615 15 0
385 -615 -19 0
385 615 -16 0
-385 615 16 0
-385 -615 19 0
386 614 -387 0
386 -614 -388 0
-386 -614 388 0
-386 614 387 0
387 -615 -22 0
387 615 -20 0
-387 615 20 0
-387 -615 22 0
388 -615 -42 0
388 615 -23 0
-388 615 23 0
-388 -615 42 0
389 -555 586 358 0
-389 555 0
-389 -586 0
-389 -358 0
390 613 -391 0
390 -613 -394 0
-390 -613 394 0
-390 613 391 0
391 614 -392 0
391 -614 -393 0
-391 -614 393 0
-391 614 392 0
392 -615 -45 0
392 615 -43 0
-392 615 43 0
-392 -615 45 0
393 -615 -49 0
393 615 -46 0
-393 615 46 0
-393 -615 49 0
394 614 -395 0
394 -614 -396 0
-394 -614 396 0
-394 614 395 0
395 -615 -52 0
395 615 -50 0
-395 615 50 0
-395 -615 52 0
396 -583 615 616 0
396 -584 615 -616 0
-396 -615 0
-396 584 -616 0
-396 583 616 0
-397 614 398 400 0
-397 398 399 400 0
397 -398 0
397 -400 0
397 -614 -399 0
-398 -615 85 0
-398 615 72 0
398 615 -72 0
398 -615 -85 0
399 615 -97 0
399 -615 -111 0
-399 -615 111 0
-399 615 97 0
400 -613 -401 0
-400 613 0
-400 401 0
401 614 -402 0
401 -614 -403 0
-401 -614 403 0
-401 614 402 0
402 615 -122 0
402 -615 -134 0
-402 -615 134 0
-402 615 122 0
403 615 -145 0
403 -615 -159 0
-403 -615 159 0
-403 615 145 0
404 613 -405 0
404 -613 -408 0
-404 -613 408 0
-404 613 405 0
405 614 -406 0
405 -614 -407 0
-405 -614 407 0
-405 614 406 0
406 615 -176 0
406 -615 -190 0
-406 -615 190 0
-406 615 176 0
407 615 -204 0
407 -615 -219 0
-407 -615 219 0
-407 615 204 0
408 614 -409 0
408 -614 -410 0
-408 -614 410 0
-408 614 409 0
409 615 -232 0
409 -615 -246 0
-409 -615 246 0
-409 615 232 0
410 615 -259 0
-410 -615 0
-410 259 0
411 36 38 412 -423 0
-411 -38 0
-411 423 0
-411 -36 0
-411 -412 0
412 612 -413 -419 0
412 -612 -419 -420 0
-412 419 0
-412 -612 420 0
-412 612 413 0
413 613 -414 0
413 -613 -418 0
-413 -613 418 0
-413 613 414 0
414 -614 -305 0
414 614 -415 0
-414 614 415 0
-414 -614 305 0
415 615 -416 0
415 -615 -352 0
415 615 -417 0
-415 -615 352 0
-415 615 416 417 0
416 -554 616 0
-416 554 0
-416 -616 0
417 -555 -616 0
-417 555 0
-417 616 0
418 614 -308 0
418 -614 -312 0
-418 -614 312 0
-418 614 308 0
419 -554 586 358 0
-419 554 0
-419 -586 0
-419 -358 0
420 613 -421 0
420 -613 -422 0
-420 -613 422 0
-420 613 421 0
421 614 -315 0
421 -614 -321 0
-421 -614 321 0
-421 614 315 0
422 614 -324 0
422 -614 -328 0
-422 -614 328 0
-422 614 324 0
-423 613 424 428 0
-423 424 427 428 0
423 -428 0
423 -424 0
423 -613 -427 0
424 -614 -279 0
424 614 -426 0
424 614 -425 0
-424 -614 279 0
-424 614 425 426 0
-425 -616 73 0
-425 616 57 0
425 616 -57 0
425 -616 -73 0
426 -615 -368 0
-426 615 0
-426 368 0
427 614 -276 0
427 -614 -284 0
-427 -614 284 0
-427 614 276 0
428 -612 -429 0
-428 612 0
-428 429 0
429 613 -430 0
429 -613 -431 0
-429 -613 431 0
-429 613 430 0
430 614 -287 0
430 -614 -292 0
-430 -614 292 0
-430 614 287 0
431 614 -295 0
431 -614 -299 0
-431 -614 299 0
-431 614 295 0
-432 36 433 0
432 -36 0
432 -433 0
-433 68 434 0
433 -68 0
433 -434 0
-434 34 37 0
434 -34 0
434 -37 0
-435 -404 436 457 -475 0
-435 404 436 457 475 0
435 -436 0
435 404 -475 0
435 -457 0
435 -404 475 0
-436 437 446 450 453 0
-436 437 -446 -450 453 0
436 -453 0
436 -446 450 0
436 -437 0
436 446 -450 0
-437 438 -441 -443 0
-437 -439 441 443 0
-437 438 441 443 0
-437 -439 -441 -443 0
437 441 -443 0
437 -441 443 0
437 -438 439 0
438 613 -377 0
-438 -613 0
-438 377 0
439 -580 -440 0
-439 580 0
-439 440 0
440 613 -363 0
-440 -613 0
-440 363 0
441 613 -442 0
-441 -613 0
-441 442 0
442 614 -410 0
-442 -614 0
-442 410 0
443 -583 -444 0
-443 583 0
-443 444 0
444 613 -445 0
-444 -613 0
-444 445 0
445 614 -396 0
-445 -614 0
-445 396 0
446 -576 -447 0
-446 576 0
-446 447 0
447 613 -448 0
447 -613 -449 0
-447 -613 449 0
-447 613 448 0
448 614 -362 0
448 -614 -364 0
-448 -614 364 0
-448 614 362 0
449 -584 614 615 616 0
-449 -616 0
-449 -615 0
-449 584 0
-449 -614 0
450 613 -451 0
450 -613 -452 0
-450 -613 452 0
-450 613 451 0
451 614 -376 0
451 -614 -378 0
-451 -614 378 0
-451 614 376 0
452 614 -379 0
-452 -614 0
-452 379 0
-453 -454 -455 0
-453 454 455 0
453 454 -455 0
453 -454 455 0
454 613 -217 0
-454 -613 0
-454 217 0
455 -577 -456 0
-455 577 0
-455 456 0
456 613 -47 0
-456 -613 0
-456 47 0
-457 -438 458 468 0
-457 439 458 468 0
457 -468 0
457 -458 0
457 438 -439 0
-458 -459 462 0
-458 460 462 0
458 -462 0
458 459 -460 0
459 613 -408 0
-459 -613 0
-459 408 0
460 -579 -461 0
-460 579 0
-460 461 0
461 613 -394 0
-461 -613 0
-461 394 0
-462 464 465 466 0
-462 -463 -465 -466 0
-462 -463 465 466 0
-462 464 -465 -466 0
462 465 -466 0
462 -465 466 0
462 463 -464 0
463 613 -452 0
-463 -613 0
-463 452 0
464 613 -449 0
-464 -613 0
-464 449 0
465 613 -431 0
-465 -613 0
-465 431 0
466 -578 -467 0
-466 578 0
-466 467 0
467 613 -422 0
-467 -613 0
-467 422 0
-468 -460 469 471 0
-468 459 469 471 0
468 -469 0
468 -471 0
468 -459 460 0
-469 -334 -470 0
-469 334 470 0
469 334 -470 0
469 -334 470 0
470 -581 -340 0
-470 581 0
-470 340 0
471 -472 473 0
-471 472 0
-471 -473 0
472 613 -298 0
-472 -613 0
-472 298 0
473 -582 432 -474 0
-473 582 0
-473 -432 0
-473 474 0
474 613 -327 0
-474 -613 0
-474 327 0
475 -571 -390 0
-475 571 0
-475 390 0
-476 -25 491 0
-476 477 485 491 0
476 -491 0
476 25 -485 0
476 25 -477 0
477 612 -478 482 0
477 441 -478 482 0
-477 -482 0
-477 478 0
-477 -612 -441 0
478 -567 612 -479 0
478 -567 -612 -444 0
-478 567 0
-478 -612 444 0
-478 612 479 0
-479 613 481 0
-479 -613 480 0
479 -613 -480 0
479 613 -481 0
480 614 -393 0
480 -614 -395 0
-480 -614 395 0
-480 614 393 0
481 614 -388 0
481 -614 -392 0
-481 -614 392 0
-481 614 388 0
-482 613 484 0
-482 -613 483 0
482 -613 -483 0
482 613 -484 0
483 614 -407 0
483 -614 -409 0
-483 -614 409 0
-483 614 407 0
484 614 -403 0
484 -614 -406 0
-484 -614 406 0
-484 614 403 0
485 -612 346 -486 0
485 612 -486 489 0
-485 486 0
-485 612 -489 0
-485 -612 -346 0
486 -557 612 -487 0
486 -557 -612 -345 0
-486 557 0
-486 -612 345 0
-486 612 487 0
-487 -613 338 0
-487 613 488 0
487 -613 -338 0
487 613 -488 0
-488 -614 18 0
-488 614 14 0
488 614 -14 0
488 -614 -18 0
489 -613 -332 0
489 613 -490 0
-489 613 490 0
-489 -613 332 0
490 614 -84 0
490 -614 -110 0
-490 -614 110 0
-490 614 84 0
-491 492 499 505 506 0
491 -499 0
491 -505 0
491 -492 0
491 -506 0
492 612 493 -495 0
492 463 493 -495 0
-492 495 0
-492 -493 0
-492 -612 -463 0
-493 613 494 0
-493 -613 451 0
493 -613 -451 0
493 613 -494 0
494 614 -372 0
494 -614 -375 0
-494 -614 375 0
-494 614 372 0
495 -612 25 -498 0
495 25 -496 -498 0
-495 498 0
-495 -25 0
-495 612 496 0
496 -613 -448 0
496 613 -497 0
-496 613 497 0
-496 -613 448 0
497 614 -356 0
497 -614 -361 0
-497 -614 361 0
-497 614 356 0
498 -568 -464 0
498 -568 612 0
-498 568 0
-498 -612 464 0
-499 503 504 0
-499 502 504 0
-499 -500 504 0
499 -504 0
499 500 -502 -503 0
-500 613 370 501 0
-500 -613 374 501 0
500 -501 0
500 613 -370 0
500 -613 -374 0
501 -612 -438 0
-501 612 0
-501 438 0
-502 612 -613 360 0
-502 612 613 354 0
502 -612 0
502 -613 -360 0
502 613 -354 0
503 -564 612 25 0
503 -564 25 -440 0
-503 564 0
-503 -25 0
-503 -612 440 0
504 -570 -420 429 432 0
-504 -432 0
-504 570 0
-504 420 0
-504 -429 0
505 -572 -359 373 432 0
-505 -432 0
-505 572 0
-505 359 0
-505 -373 0
-506 473 508 0
-506 -472 -507 0
-506 -472 508 0
-506 473 -507 0
-506 -472 473 0
506 472 -473 0
506 472 507 -508 0
506 -473 507 -508 0
-507 -613 291 0
-507 613 283 0
507 613 -283 0
507 -613 -291 0
508 -612 -474 -510 0
508 612 -509 -510 0
-508 510 0
-508 -612 474 0
-508 612 509 0
509 613 -311 0
509 -613 -320 0
-509 -613 320 0
-509 613 311 0
510 -566 25 0
-510 566 0
-510 -25 0
-511 412 512 526 0
-511 -423 512 526 0
511 -526 0
511 -512 0
511 -412 423 0
-512 513 521 0
-512 -517 521 0
-512 559 521 0
512 -521 0
512 -559 -513 517 0
513 -612 25 -516 0
513 612 25 -514 0
-513 -25 0
-513 -612 516 0
-513 612 514 0
-514 -613 481 0
-514 613 515 0
514 -613 -481 0
514 613 -515 0
-515 -614 387 0
-515 614 385 0
515 614 -385 0
515 -614 -387 0
516 -613 -445 0
516 613 -480 0
-516 613 480 0
-516 -613 445 0
-517 484 518 519 0
-517 613 518 519 0
517 -518 0
517 -519 0
517 -613 -484 0
-518 -614 402 0
-518 614 399 0
518 614 -399 0
518 -614 -402 0
519 -612 -520 0
-519 612 0
-519 520 0
520 -613 -442 0
520 613 -483 0
-520 613 483 0
-520 -613 442 0
521 612 522 -523 0
521 465 522 -523 0
-521 523 0
-521 -522 0
-521 -612 -465 0
-522 -613 430 0
-522 613 427 0
522 613 -427 0
522 -613 -430 0
523 -612 -467 -525 0
523 612 -524 -525 0
-523 525 0
-523 -612 467 0
-523 612 524 0
524 613 -418 0
524 -613 -421 0
-524 -613 421 0
-524 613 418 0
525 -562 25 0
-525 562 0
-525 -25 0
-526 527 534 539 544 0
526 -544 0
526 -539 0
526 -527 0
526 -534 0
527 612 528 -530 0
527 450 528 -530 0
-527 530 0
-527 -528 0
-527 -612 -450 0
-528 614 366 529 0
-528 -614 371 529 0
528 -529 0
528 614 -366 0
528 -614 -371 0
529 -613 -494 0
-529 613 0
-529 494 0
530 -560 25 -531 0
-530 560 0
-530 -25 0
-530 531 0
-531 -612 447 0
-531 612 532 0
531 -612 -447 0
531 612 -532 0
-532 -613 497 0
-532 613 533 0
532 -613 -497 0
532 613 -533 0
-533 -614 355 0
-533 614 353 0
533 614 -353 0
533 -614 -355 0
534 612 535 -536 0
534 459 535 -536 0
-534 536 0
-534 -535 0
-534 -612 -459 0
-535 -613 405 0
-535 613 401 0
535 613 -401 0
535 -613 -405 0
536 -612 -461 -538 0
536 612 -537 -538 0
-536 538 0
-536 -612 461 0
-536 612 537 0
537 613 -386 0
537 -613 -391 0
-537 -613 391 0
-537 613 386 0
538 -563 25 0
-538 563 0
-538 -25 0
539 612 540 -541 0
539 454 540 -541 0
-539 541 0
-539 -540 0
-539 -612 -454 0
-540 -613 157 0
-540 613 109 0
540 613 -109 0
540 -613 -157 0
541 -612 -456 -543 0
541 612 -542 -543 0
-541 543 0
-541 -612 456 0
-541 612 542 0
542 613 -17 0
542 -613 -40 0
-542 -613 40 0
-542 613 17 0
543 -561 25 0
-543 561 0
-543 -25 0
-544 545 551 0
-544 -290 432 545 0
544 -545 0
544 290 -551 0
544 -432 -551 0
-545 546 548 0
-545 432 -520 546 0
545 -546 0
545 -432 -548 0
545 520 -548 0
546 -36 433 -547 0
546 156 433 -547 0
-546 547 0
-546 -433 0
-546 36 -156 0
547 -569 36 -39 0
-547 569 0
-547 -36 0
-547 39 0
548 65 -549 -516 550 0
-548 -550 0
-548 -65 0
-548 516 0
-548 549 0
549 -575 36 0
-549 575 0
-549 -36 0
-550 27 32 434 0
550 -27 0
550 -32 0
550 -434 0
551 65 -552 -319 550 0
-551 -550 0
-551 -65 0
-551 319 0
-551 552 0
552 -574 36 0
-552 574 0
-552 -36 0
-617 0
2 0

